NAME: cuum150.tsp
TYPE: TSP
COMMENT: User-generated TSP file
DIMENSION: 150
EDGE_WEIGHT_TYPE: EUC_2D
NODE_COORD_SECTION
1 6.0 68.0
2 66.0 115.0
3 141.0 136.0
4 95.0 39.0
5 112.0 138.0
6 81.0 66.0
7 132.0 82.0
8 41.0 133.0
9 62.0 146.0
10 149.0 10.0
11 127.0 38.0
12 27.0 124.0
13 124.0 111.0
14 136.0 17.0
15 147.0 131.0
16 83.0 96.0
17 146.0 65.0
18 139.0 74.0
19 141.0 15.0
20 32.0 8.0
21 147.0 73.0
22 64.0 73.0
23 46.0 143.0
24 117.0 136.0
25 149.0 92.0
26 34.0 54.0
27 105.0 5.0
28 133.0 73.0
29 51.0 31.0
30 73.0 30.0
31 6.0 91.0
32 119.0 131.0
33 62.0 84.0
34 91.0 114.0
35 81.0 11.0
36 113.0 125.0
37 105.0 79.0
38 99.0 49.0
39 76.0 69.0
40 60.0 40.0
41 101.0 60.0
42 102.0 142.0
43 50.0 114.0
44 90.0 81.0
45 55.0 86.0
46 6.0 15.0
47 1.0 27.0
48 25.0 87.0
49 144.0 96.0
50 106.0 130.0
51 113.0 1.0
52 62.0 3.0
53 137.0 118.0
54 35.0 121.0
55 14.0 48.0
56 64.0 3.0
57 25.0 116.0
58 92.0 111.0
59 62.0 65.0
60 110.0 124.0
61 123.0 61.0
62 124.0 126.0
63 33.0 12.0
64 105.0 95.0
65 79.0 127.0
66 136.0 87.0
67 53.0 52.0
68 105.0 53.0
69 16.0 65.0
70 115.0 106.0
71 76.0 12.0
72 41.0 13.0
73 36.0 48.0
74 108.0 138.0
75 144.0 61.0
76 8.0 34.0
77 116.0 12.0
78 42.0 91.0
79 33.0 79.0
80 88.0 60.0
81 64.0 23.0
82 56.0 46.0
83 85.0 91.0
84 20.0 53.0
85 110.0 68.0
86 138.0 148.0
87 28.0 35.0
88 120.0 45.0
89 139.0 12.0
90 106.0 78.0
91 33.0 94.0
92 103.0 49.0
93 18.0 108.0
94 138.0 121.0
95 91.0 63.0
96 144.0 116.0
97 37.0 13.0
98 24.0 47.0
99 25.0 71.0
100 94.0 37.0
101 146.0 130.0
102 14.0 10.0
103 130.0 4.0
104 43.0 23.0
105 50.0 69.0
106 87.0 92.0
107 102.0 78.0
108 51.0 103.0
109 150.0 62.0
110 24.0 96.0
111 129.0 21.0
112 27.0 72.0
113 101.0 21.0
114 54.0 106.0
115 83.0 130.0
116 24.0 109.0
117 132.0 1.0
118 134.0 57.0
119 60.0 18.0
120 70.0 81.0
121 115.0 114.0
122 106.0 48.0
123 29.0 141.0
124 146.0 116.0
125 99.0 40.0
126 47.0 55.0
127 136.0 3.0
128 129.0 128.0
129 73.0 143.0
130 88.0 144.0
131 34.0 83.0
132 75.0 132.0
133 31.0 51.0
134 62.0 64.0
135 126.0 53.0
136 100.0 51.0
137 20.0 142.0
138 102.0 142.0
139 19.0 51.0
140 142.0 66.0
141 33.0 46.0
142 35.0 131.0
143 32.0 86.0
144 113.0 34.0
145 133.0 122.0
146 16.0 73.0
147 130.0 50.0
148 41.0 114.0
149 12.0 59.0
150 150.0 30.0
EOF





